Solver command line: ['C:\\Program Files\\IBM\\ILOG\\CPLEX_Studio2211\\cplex\\bin\\x64_win64\\cplex.exe']


Welcome to IBM(R) ILOG(R) CPLEX(R) Interactive Optimizer 22.1.1.0
  with Simplex, Mixed Integer & Barrier Optimizers
5725-A06 5725-A29 5724-Y48 5724-Y49 5724-Y54 5724-Y55 5655-Y21
Copyright IBM Corp. 1988, 2022.  All Rights Reserved.

Type 'help' for a list of available commands.
Type 'help' followed by a command name for more
information on commands.

CPLEX> Logfile 'cplex.log' closed.
Logfile 'C:\Users\wangy\Documents\GitHub\re_optimization\result_site_specific\tmpqj2vjy7h.cplex.log' open.
CPLEX> Problem 'C:\Users\wangy\Documents\GitHub\re_optimization\result_site_specific\tmppvn4u2ks.pyomo.lp' read.
Read time = 0.19 sec. (6.21 ticks)
CPLEX> Problem name         : C:\Users\wangy\Documents\GitHub\re_optimization\result_site_specific\tmppvn4u2ks.pyomo.lp
Objective sense      : Minimize
Variables            :   43845  [Nneg: 23381,  Free: 4400,  Binary: 4,
                                 Other: 16060]
Objective nonzeros   :      11
Linear constraints   :   64280  [Less: 35051,  Greater: 3,  Equal: 29226]
  Nonzeros           :  154653
  RHS nonzeros       :    2437

Variables            : Min LB: 0.000000         Max UB: 1.000000       
Objective nonzeros   : Min   : 1.000000         Max   : 1.000000       
Linear constraints   :
  Nonzeros           : Min   : 0.04907396       Max   : 100000.0       
  RHS nonzeros       : Min   : 0.01000000       Max   : 1000.000       
CPLEX> Version identifier: 22.1.1.0 | 2022-11-27 | 9160aff4d
Tried aggregator 3 times.
MIP Presolve eliminated 42891 rows and 23912 columns.
Aggregator did 8769 substitutions.
Reduced MIP has 12620 rows, 11164 columns, and 37353 nonzeros.
Reduced MIP has 2 binaries, 0 generals, 0 SOSs, and 0 indicators.
Presolve time = 0.11 sec. (133.79 ticks)
Found incumbent of value 154167.441087 after 0.14 sec. (153.94 ticks)
Probing time = 0.00 sec. (0.60 ticks)
Tried aggregator 1 time.
Detecting symmetries...
Reduced MIP has 12620 rows, 11164 columns, and 37353 nonzeros.
Reduced MIP has 2 binaries, 0 generals, 0 SOSs, and 0 indicators.
Presolve time = 0.02 sec. (22.85 ticks)
Probing time = 0.00 sec. (0.57 ticks)
MIP emphasis: balance optimality and feasibility.
MIP search method: dynamic search.
Parallel mode: deterministic, using up to 16 threads.
Root relaxation solution time = 0.36 sec. (327.35 ticks)

        Nodes                                         Cuts/
   Node  Left     Objective  IInf  Best Integer    Best Bound    ItCnt     Gap

*     0+    0                       154167.4411     -702.6718           100.46%
      0     0      671.1105     1   154167.4411      671.1105       42   99.56%
*     0+    0                          814.2466      671.1105            17.58%
      0     0        cutoff            814.2466                     97    0.00%
Elapsed time = 0.67 sec. (581.23 ticks, tree = 0.01 MB, solutions = 2)

Root node processing (before b&c):
  Real time             =    0.67 sec. (582.97 ticks)
Parallel b&c, 16 threads:
  Real time             =    0.00 sec. (0.00 ticks)
  Sync time (average)   =    0.00 sec.
  Wait time (average)   =    0.00 sec.
                          ------------
Total (root+branch&cut) =    0.67 sec. (582.97 ticks)

Solution pool: 2 solutions saved.

MIP - Integer optimal solution:  Objective =  8.1424659607e+02
Solution time =    0.67 sec.  Iterations = 97  Nodes = 0
Deterministic time = 583.10 ticks  (867.70 ticks/sec)

CPLEX> Incumbent solution written to file 'C:\Users\wangy\Documents\GitHub\re_optimization\result_site_specific\tmpel8ljawk.cplex.sol'.
CPLEX> 
